! Solving for graph /home/truongxuanhieu/CPLEX-CP-for-MinSpanLabeling/benchmarks/abp/S-sherman4.mtx.rnd
! Target value is set to 391
! Lower bound is set to 392
! Upper bound is set to 819
! Time limit is set to 1800
! Vertices mode is set to Has hole
 ! --------------------------------------------------- CP Optimizer 22.2.0.0 --
 ! Minimization problem - 547 variables, 1888 constraints, 1 phase
 ! TimeLimit            = 1800
 ! LogVerbosity         = Terse
 ! Initial process time : 0.02s (0.02s extraction + 0.00s propagation)
 !  . Log search space  : 5286.5 (before), 5286.5 (after)
 !  . Memory usage      : 929.8 kB (before), 929.8 kB (after)
 ! Using parallel search with 8 workers.
 ! ----------------------------------------------------------------------------
 !          Best Branches  Non-fixed    W       Branch decision
                        0        547                 -
 + New bound is 392
 *           392        1  0.16s        1      (gap is 0.00%)
 ! ----------------------------------------------------------------------------
 ! Search completed, 1 solution found.
 ! Best objective         : 392 (optimal - effective tol. is 0)
 ! Best bound             : 392
 ! ----------------------------------------------------------------------------
 ! Number of branches     : 4008
 ! Number of fails        : 82
 ! Total memory usage     : 53.3 MB (52.6 MB CP Optimizer + 0.8 MB Concert)
 ! Time spent in solve    : 0.16s (0.14s engine + 0.02s extraction)
 ! Search speed (br. / s) : 30830.8
 ! ----------------------------------------------------------------------------
! --------------------------------------------------------
! Best span = 392
! Labeling: 392 392 1 1 1 392 392 392 392 392 1 392 392 1 392 392 392 1 1 1 392 1 1 392 1 1 392 392 392 1 1 1 1 1 392 392 1 392 1 392 392 1 392 1 1 1 1 1 1 1 1 1 392 392 1 392 392 1 1 1 1 1 1 1 1 392 1 392 1 392 1 392 392 392 392 392 392 1 392 392 1 1 392 1 392 392 1 392 392 392 392 392 1 1 392 1 392 1 1 1 1 392 392 1 1 1 1 392 1 392 1 392 392 392 392 1 1 1 1 1 392 1 1 1 1 1 1 392 1 1 392 1 1 1 1 392 392 1 392 1 1 1 392 392 392 392 392 392 1 392 392 1 392 392 1 1 1 1 392 392 392 392 1 392 1 1 392 1 392 392 392 392 1 1 392 1 1 1 392 392 392 392 392 392 392 1 1 1 1 392 392 1 392 1 1 1 392 392 392 1 392 392 392 1 1 1 392 392 1 392 392 1 392 1 392 392 1 392 1 1 1 1 392 392 392 1 392 1 1 392 1 392 392 1 1 1 1 392 392 392 1 1 392 392 1 1 1 1 392 392 392 392 1 1 1 1 392 1 1 392 392 1 392 392 1 1 1 1 1 1 392 1 1 392 392 392 1 392 1 1 1 392 1 392 1 1 392 1 1 392 392 1 1 1 1 1 392 392 1 1 392 392 392 392 392 1 392 392 392 392 1 1 392 1 392 1 392 392 1 392 1 1 392 392 1 392 392 1 1 392 392 392 1 1 1 1 1 1 392 392 1 1 392 1 1 392 1 392 1 392 392 392 1 392 1 392 392 392 392 392 392 392 392 1 392 1 1 1 1 392 1 392 392 392 392 1 392 392 1 392 392 392 1 1 1 392 1 392 392 392 392 1 392 1 1 1 392 392 392 1 1 1 392 392 1 392 1 392 392 1 392 1 1 1 1 392 392 392 1 392 392 392 392 1 1 1 392 392 392 392 1 392 392 1 1 1 1 392 1 1 392 392 1 392 392 392 1 392 392 1 392 1 1 1 1 392 392 392 392 392 1 1 392 392 1 392 1 1 1 1 392 1 1 392 392 1 392 1 392 1 1 392 392 1 392 392 392 392 1 392 392 392 392 1 392 1 392 1 392 392 1 392 1 1 1 1 1 1 392 1 1 1 1 1 1 1 392 1 392 1 392 392 392 1 392 392 1 1 1 392 1 392 392 1 1 392 392 392 1 392 392 392 392 392 1 1 
! -------------------------------------------------------- 
